unsat
(define-fun inv-f ((c Int) (y Int) (z Int) (tmp Int) (c_0 Int) (c_1 Int) (c_2 Int) (c_3 Int) (c_4 Int) (y_0 Int) (z_0 Int) (z_1 Int) (z_2 Int) (z_3 Int) (z_4 Int)) Bool (or (not (= c c_2)) (not (= y y_0)) (not (= z z_2)) (>= z_2 0) (not (>= z_2 4608)) (>= c_2 36)))
0.01user 0.00system 0:00.01elapsed 100%CPU (0avgtext+0avgdata 24784maxresident)k
0inputs+8outputs (0major+984minor)pagefaults 0swaps
